s td 12 29 40
b 1 1 2 3 4 5 6 7 11 12 13 14 15 16 18 19 20 22 25 26 28 29 30 31 32 34 35 37 38 40
b 2 1 3 4 5 6 7 11 12 13 14 15 16 18 19 21 22 25 26 28 29 30 31 32 34 35 37 38 40
b 3 1 3 4 5 6 7 9 11 12 14 15 16 19 21 22 25 26 28 29 30 31 34 35 37 38 40
b 4 1 3 4 5 6 7 8 9 11 12 14 15 16 19 21 22 25 26 28 29 30 31 35 37 38
b 5 1 3 4 5 8 14 15 19 21 25 28 29 30 31 35 39
b 6 1 2 3 4 6 7 11 12 13 14 15 16 18 19 20 22 23 25 26 28 29 30 31 32 34 35 37 38 40
b 7 1 2 3 4 6 7 11 12 13 14 15 16 17 18 19 20 22 23 25 26 28 30 31 32 35 37 38 40
b 8 1 4 6 7 10 12 14 15 17 18 20 22 23 26 30 32 37 40
b 9 1 2 3 4 6 7 11 12 13 14 16 17 18 19 20 23 25 26 27 28 30 31 32 35 37 38 40
b 10 2 3 4 6 7 11 12 13 14 16 17 18 19 24 25 26 27 28 32 35 38 40
b 11 2 3 4 5 7 12 13 18 19 20 29 31 33 34 35 38 40
b 12 1 3 4 7 11 12 13 14 18 22 25 26 31 34 35 36 37
1 2
1 6
1 11
1 12
2 3
3 4
4 5
6 7
7 8
7 9
9 10
